NAME: inst6.atsp
TYPE: ATSP
DIMENSION: 9
EDGE_WEIGHT_TYPE: EXPLICIT
EDGE_WEIGHT_FORMAT: FULL_MATRIX
EDGE_WEIGHT_SECTION:
0 92 99 2 57 93 5 89 86
49 0 75 65 41 58 81 47 59
45 20 0 16 38 95 87 80 56
98 25 20 0 96 84 2 93 17
44 62 49 90 0 80 24 35 77
60 31 98 46 63 0 67 67 95
68 67 24 76 72 26 0 8 96
64 1 37 11 28 32 4 0 99
42 98 19 32 50 27 53 74 0
EOF